n = 9;

num_segments = 29;

param segments = [
[1  1  2  2  2  3  4  5  6],
[7  7  8  8  3  3  4  5  6], 
[7  7  9  9  3 10 11 11  6], 
[13 14 14  9 15 10 11 12  6],
[13 16 16 17 15 10 12 12 18], 
[19 16 20 17 15 21 22 22 18], 
[19 20 20 17 23 21 21 24 24], 
[19 25 26 23 23 27 27 24 24], 
[19 25 26 23 28 28 28 29 29]
			];

segment_sums = [3, 15, 22, 4, 16, 15, 25, 17, 9, 8, 20, 17, 6, 14, 17, 13, 20, 12, 27, 6, 20, 6, 10, 14, 8, 16, 15, 13, 17];